CPXPARAM_TimeLimit                               7200
CPXPARAM_Read_DataCheck                          1
CPXPARAM_Output_IntSolFilePrefix                 "solucoes/t_sol_ini_ID000M003J005_ZintTrue_minla_fav_ub33/sol"
Tried aggregator 1 time.
MIP Presolve eliminated 91 rows and 9 columns.
MIP Presolve modified 192 coefficients.
Reduced MIP has 129 rows, 37 columns, and 357 nonzeros.
Reduced MIP has 21 binaries, 0 generals, 0 SOSs, and 0 indicators.
Presolve time = 0.00 sec. (0.38 ticks)
Found incumbent of value 33.000000 after 0.00 sec. (0.55 ticks)
Probing fixed 6 vars, tightened 12 bounds.
Probing time = 0.00 sec. (0.13 ticks)
Cover probing fixed 0 vars, tightened 3 bounds.
Tried aggregator 1 time.
MIP Presolve eliminated 34 rows and 8 columns.
MIP Presolve modified 55 coefficients.
Reduced MIP has 95 rows, 29 columns, and 233 nonzeros.
Reduced MIP has 15 binaries, 0 generals, 0 SOSs, and 0 indicators.
Presolve time = 0.00 sec. (0.16 ticks)
Probing time = 0.00 sec. (0.07 ticks)
Tried aggregator 1 time.
MIP Presolve modified 4 coefficients.
Reduced MIP has 95 rows, 29 columns, and 233 nonzeros.
Reduced MIP has 15 binaries, 0 generals, 0 SOSs, and 0 indicators.
Presolve time = 0.00 sec. (0.13 ticks)

Root node processing (before b&c):
  Real time             =    0.00 sec. (1.12 ticks)
Parallel b&c, 8 threads:
  Real time             =    0.00 sec. (0.00 ticks)
  Sync time (average)   =    0.00 sec.
  Wait time (average)   =    0.00 sec.
                          ------------
Total (root+branch&cut) =    0.00 sec. (1.12 ticks)
